data;
set K:= K1 K2 K3 K4 K5 K6 K7 K8 K9 K10 K11 K12 K13 K14 K15 ;

set F:= F1 F2 F3 ;

set Q:= Q1 Q2 ;

param T:= 45;
param V: 
	K1  K2  K3  K4  K5  K6  K7  K8  K9  K10 K11 K12 K13 K14 K15 :=
Q1	1   1   1   1   1   1   1   1   1   0   0   0   0   0   0   
Q2	0   0   0   0   0   0   0   0   0   1   1   1   1   1   1   
; # if resorce k is of type q

param TF:= 
K1 6
K2 6
K3 6
K4 6
K5 6
K6 6
K7 6
K8 6
K9 6
K10 12
K11 12
K12 12
K13 12
K14 12
K15 12
; # number of continuous time slots resource can fly

param TR:= 
K1 2
K2 2
K3 2
K4 2
K5 2
K6 2
K7 2
K8 2
K9 2
K10 4
K11 4
K12 4
K13 4
K14 4
K15 4
; #  number of continuous time slots resource k needs to rest between flights

param P:= 
K1 36
K2 36
K3 36
K4 36
K5 36
K6 36
K7 36
K8 36
K9 36
K10 36
K11 36
K12 36
K13 36
K14 36
K15 36
; #  number of continuous time slots a pilot can be present including rest times for resource k 

param N:= 
K1 4
K2 4
K3 4
K4 4
K5 4
K6 4
K7 4
K8 4
K9 4
K10 2
K11 2
K12 2
K13 1
K14 1
K15 1
; # max number of flights resource k can fly in the total time period

param A: 
	K1  K2  K3  K4  K5  K6  K7  K8  K9  K10 K11 K12 K13 K14 K15 :=
1	1   1   1   1   1   1   1   1   1   1   1   1   0   1   0   
2	1   1   1   1   1   1   1   1   1   1   1   1   0   1   0   
3	1   1   1   1   1   1   1   1   1   1   1   1   0   1   0   
4	1   1   1   1   1   1   1   1   1   1   1   1   0   1   0   
5	1   1   1   1   1   1   1   1   1   1   1   1   0   1   0   
6	1   1   1   1   1   1   1   1   1   1   1   1   0   1   0   
7	1   1   1   1   1   1   1   1   1   1   1   1   0   1   0   
8	1   1   1   1   1   1   1   1   1   1   1   1   0   1   0   
9	1   1   1   1   1   1   1   1   1   1   1   1   0   1   0   
10	1   1   1   1   1   1   1   1   1   1   1   1   0   1   0   
11	1   1   1   1   1   1   1   1   1   1   1   1   0   1   0   
12	1   1   1   1   1   1   1   1   1   1   1   1   0   1   0   
13	1   1   1   1   1   1   1   1   1   1   1   1   1   1   0   
14	1   1   1   1   1   1   1   1   1   1   1   1   1   1   0   
15	1   1   1   1   1   1   1   1   1   1   1   1   1   1   0   
16	1   1   1   1   1   1   1   1   1   1   1   1   1   1   1   
17	1   1   1   1   1   1   1   1   1   1   1   1   1   1   1   
18	1   1   1   1   1   1   1   1   1   1   1   1   1   1   1   
19	1   1   1   1   1   1   1   1   1   1   1   1   1   1   1   
20	1   1   1   1   1   1   1   1   1   1   1   1   1   1   1   
21	1   1   1   1   1   1   1   1   1   1   1   1   1   1   1   
22	1   1   1   1   1   1   1   1   1   1   1   1   1   1   1   
23	1   1   1   1   1   1   1   1   1   1   1   1   1   1   1   
24	1   1   1   1   1   1   1   1   1   1   1   1   1   1   1   
25	1   1   1   1   1   1   1   1   1   1   1   1   1   1   1   
26	1   1   1   1   1   1   1   1   1   1   1   1   1   1   1   
27	1   1   1   1   1   1   1   1   1   1   1   1   1   1   1   
28	1   1   1   1   1   1   1   1   1   1   1   1   1   1   1   
29	1   1   1   1   1   1   1   1   1   1   1   1   1   1   1   
30	1   1   1   1   1   1   1   1   1   1   1   1   1   1   1   
31	1   1   1   1   1   1   1   1   1   1   1   1   1   1   1   
32	1   1   1   1   1   1   1   1   1   1   1   1   1   1   1   
33	1   1   1   1   1   1   1   1   1   1   1   1   1   1   1   
34	1   1   1   1   1   1   1   1   1   1   1   1   1   1   1   
35	1   1   1   1   1   1   1   1   1   1   1   1   1   1   1   
36	1   1   1   1   1   1   1   1   1   1   1   1   1   1   1   
37	1   1   1   1   1   1   1   1   1   1   1   1   1   1   1   
38	1   1   1   1   1   1   1   1   1   1   1   1   1   0   1   
39	1   1   1   1   1   1   1   1   1   1   1   1   1   0   1   
40	1   1   1   1   1   1   1   1   1   1   1   1   1   0   1   
41	1   1   1   1   1   1   1   1   1   1   1   1   1   0   1   
42	1   1   1   1   1   1   1   1   1   1   1   1   1   0   1   
43	1   1   1   1   1   1   1   1   1   1   1   1   1   0   1   
44	1   1   1   1   1   1   1   1   1   1   1   1   1   0   1   
45	1   1   1   1   1   1   1   1   1   1   1   1   1   0   1   
; # availability of resorce k in time slot t

param B: 
	F1  F2  F3  :=
Q1	0   0   0   
Q2	0   0   0   
; # if front f requires resources of type q

param U: 
	F1  F2  F3  :=
K1	0   0   0   
K2	0   0   0   
K3	0   0   0   
K4	0   0   0   
K5	0   0   0   
K6	0   0   0   
K7	0   0   0   
K8	0   0   0   
K9	0   0   0   
K10	0   0   0   
K11	1   1   1   
K12	1   1   1   
K13	2   2   2   
K14	2   2   2   
K15	2   2   2   
; # transit time of resource

param C:= 
K1 900
K2 900
K3 900
K4 900
K5 900
K6 1500
K7 1500
K8 4500
K9 4500
K10 5500
K11 5500
K12 5500
K13 5500
K14 5500
K15 5500
; #  water capacity of resource k

param S:= 
F1 10
F2 9
F3 7
; # max number of resources that can fly at front f in the same time slot

param D:= 

[*,*,F1 ]:  K1    K2    K3    K4    K5    K6    K7    K8    K9    K10   K11   K12   K13   K14   K15   :=
1           1.75  1.75  1.75  1.75  1.75  1.75  1.75  1.40  1.40  1.05  1.05  1.05  1.05  1.05  1.05  
2           1.75  1.75  1.75  1.75  1.75  1.75  1.75  1.40  1.40  1.05  1.05  1.05  1.05  1.05  1.05  
3           1.75  1.75  1.75  1.75  1.75  1.75  1.75  1.40  1.40  1.05  1.05  1.05  1.05  1.05  1.05  
4           1.75  1.75  1.75  1.75  1.75  1.75  1.75  1.40  1.40  1.05  1.05  1.05  1.05  1.05  1.05  
5           1.75  1.75  1.75  1.75  1.75  1.75  1.75  1.40  1.40  1.05  1.05  1.05  1.05  1.05  1.05  
6           1.75  1.75  1.75  1.75  1.75  1.75  1.75  1.40  1.40  1.05  1.05  1.05  1.05  1.05  1.05  
7           1.75  1.75  1.75  1.75  1.75  1.75  1.75  1.40  1.40  1.05  1.05  1.05  1.05  1.05  1.05  
8           1.75  1.75  1.75  1.75  1.75  1.75  1.75  1.40  1.40  1.05  1.05  1.05  1.05  1.05  1.05  
9           1.75  1.75  1.75  1.75  1.75  1.75  1.75  1.40  1.40  1.05  1.05  1.05  1.05  1.05  1.05  
10          1.75  1.75  1.75  1.75  1.75  1.75  1.75  1.40  1.40  1.05  1.05  1.05  1.05  1.05  1.05  
11          1.75  1.75  1.75  1.75  1.75  1.75  1.75  1.40  1.40  1.05  1.05  1.05  1.05  1.05  1.05  
12          1.75  1.75  1.75  1.75  1.75  1.75  1.75  1.40  1.40  1.05  1.05  1.05  1.05  1.05  1.05  
13          1.75  1.75  1.75  1.75  1.75  1.75  1.75  1.40  1.40  1.05  1.05  1.05  1.05  1.05  1.05  
14          1.75  1.75  1.75  1.75  1.75  1.75  1.75  1.40  1.40  1.05  1.05  1.05  1.05  1.05  1.05  
15          1.75  1.75  1.75  1.75  1.75  1.75  1.75  1.40  1.40  1.05  1.05  1.05  1.05  1.05  1.05  
16          1.75  1.75  1.75  1.75  1.75  1.75  1.75  1.40  1.40  1.05  1.05  1.05  1.05  1.05  1.05  
17          1.75  1.75  1.75  1.75  1.75  1.75  1.75  1.40  1.40  1.05  1.05  1.05  1.05  1.05  1.05  
18          1.75  1.75  1.75  1.75  1.75  1.75  1.75  1.40  1.40  1.05  1.05  1.05  1.05  1.05  1.05  
19          1.75  1.75  1.75  1.75  1.75  1.75  1.75  1.40  1.40  1.05  1.05  1.05  1.05  1.05  1.05  
20          1.75  1.75  1.75  1.75  1.75  1.75  1.75  1.40  1.40  1.05  1.05  1.05  1.05  1.05  1.05  
21          1.75  1.75  1.75  1.75  1.75  1.75  1.75  1.40  1.40  1.05  1.05  1.05  1.05  1.05  1.05  
22          1.75  1.75  1.75  1.75  1.75  1.75  1.75  1.40  1.40  1.05  1.05  1.05  1.05  1.05  1.05  
23          1.75  1.75  1.75  1.75  1.75  1.75  1.75  1.40  1.40  1.05  1.05  1.05  1.05  1.05  1.05  
24          1.75  1.75  1.75  1.75  1.75  1.75  1.75  1.40  1.40  1.05  1.05  1.05  1.05  1.05  1.05  
25          1.67  1.67  1.67  1.67  1.67  1.67  1.67  1.33  1.33  1.00  1.00  1.00  1.00  1.00  1.00  
26          1.67  1.67  1.67  1.67  1.67  1.67  1.67  1.33  1.33  1.00  1.00  1.00  1.00  1.00  1.00  
27          1.67  1.67  1.67  1.67  1.67  1.67  1.67  1.33  1.33  1.00  1.00  1.00  1.00  1.00  1.00  
28          1.67  1.67  1.67  1.67  1.67  1.67  1.67  1.33  1.33  1.00  1.00  1.00  1.00  1.00  1.00  
29          1.67  1.67  1.67  1.67  1.67  1.67  1.67  1.33  1.33  1.00  1.00  1.00  1.00  1.00  1.00  
30          1.67  1.67  1.67  1.67  1.67  1.67  1.67  1.33  1.33  1.00  1.00  1.00  1.00  1.00  1.00  
31          1.67  1.67  1.67  1.67  1.67  1.67  1.67  1.33  1.33  1.00  1.00  1.00  1.00  1.00  1.00  
32          1.67  1.67  1.67  1.67  1.67  1.67  1.67  1.33  1.33  1.00  1.00  1.00  1.00  1.00  1.00  
33          1.67  1.67  1.67  1.67  1.67  1.67  1.67  1.33  1.33  1.00  1.00  1.00  1.00  1.00  1.00  
34          1.75  1.75  1.75  1.75  1.75  1.75  1.75  1.40  1.40  1.05  1.05  1.05  1.05  1.05  1.05  
35          1.75  1.75  1.75  1.75  1.75  1.75  1.75  1.40  1.40  1.05  1.05  1.05  1.05  1.05  1.05  
36          1.75  1.75  1.75  1.75  1.75  1.75  1.75  1.40  1.40  1.05  1.05  1.05  1.05  1.05  1.05  
37          1.75  1.75  1.75  1.75  1.75  1.75  1.75  1.40  1.40  1.05  1.05  1.05  1.05  1.05  1.05  
38          1.75  1.75  1.75  1.75  1.75  1.75  1.75  1.40  1.40  1.05  1.05  1.05  1.05  1.05  1.05  
39          1.75  1.75  1.75  1.75  1.75  1.75  1.75  1.40  1.40  1.05  1.05  1.05  1.05  1.05  1.05  
40          1.75  1.75  1.75  1.75  1.75  1.75  1.75  1.40  1.40  1.05  1.05  1.05  1.05  1.05  1.05  
41          1.75  1.75  1.75  1.75  1.75  1.75  1.75  1.40  1.40  1.05  1.05  1.05  1.05  1.05  1.05  
42          1.75  1.75  1.75  1.75  1.75  1.75  1.75  1.40  1.40  1.05  1.05  1.05  1.05  1.05  1.05  
43          1.75  1.75  1.75  1.75  1.75  1.75  1.75  1.40  1.40  1.05  1.05  1.05  1.05  1.05  1.05  
44          1.75  1.75  1.75  1.75  1.75  1.75  1.75  1.40  1.40  1.05  1.05  1.05  1.05  1.05  1.05  
45          1.75  1.75  1.75  1.75  1.75  1.75  1.75  1.40  1.40  1.05  1.05  1.05  1.05  1.05  1.05  

[*,*,F2 ]:  K1    K2    K3    K4    K5    K6    K7    K8    K9    K10   K11   K12   K13   K14   K15   :=
1           1.82  1.82  1.82  1.82  1.82  1.82  1.82  1.45  1.45  1.09  1.09  1.09  1.09  1.09  1.09  
2           1.82  1.82  1.82  1.82  1.82  1.82  1.82  1.45  1.45  1.09  1.09  1.09  1.09  1.09  1.09  
3           1.82  1.82  1.82  1.82  1.82  1.82  1.82  1.45  1.45  1.09  1.09  1.09  1.09  1.09  1.09  
4           1.82  1.82  1.82  1.82  1.82  1.82  1.82  1.45  1.45  1.09  1.09  1.09  1.09  1.09  1.09  
5           1.82  1.82  1.82  1.82  1.82  1.82  1.82  1.45  1.45  1.09  1.09  1.09  1.09  1.09  1.09  
6           1.82  1.82  1.82  1.82  1.82  1.82  1.82  1.45  1.45  1.09  1.09  1.09  1.09  1.09  1.09  
7           1.82  1.82  1.82  1.82  1.82  1.82  1.82  1.45  1.45  1.09  1.09  1.09  1.09  1.09  1.09  
8           1.82  1.82  1.82  1.82  1.82  1.82  1.82  1.45  1.45  1.09  1.09  1.09  1.09  1.09  1.09  
9           1.82  1.82  1.82  1.82  1.82  1.82  1.82  1.45  1.45  1.09  1.09  1.09  1.09  1.09  1.09  
10          1.82  1.82  1.82  1.82  1.82  1.82  1.82  1.45  1.45  1.09  1.09  1.09  1.09  1.09  1.09  
11          1.82  1.82  1.82  1.82  1.82  1.82  1.82  1.45  1.45  1.09  1.09  1.09  1.09  1.09  1.09  
12          1.82  1.82  1.82  1.82  1.82  1.82  1.82  1.45  1.45  1.09  1.09  1.09  1.09  1.09  1.09  
13          1.82  1.82  1.82  1.82  1.82  1.82  1.82  1.45  1.45  1.09  1.09  1.09  1.09  1.09  1.09  
14          1.82  1.82  1.82  1.82  1.82  1.82  1.82  1.45  1.45  1.09  1.09  1.09  1.09  1.09  1.09  
15          1.82  1.82  1.82  1.82  1.82  1.82  1.82  1.45  1.45  1.09  1.09  1.09  1.09  1.09  1.09  
16          1.82  1.82  1.82  1.82  1.82  1.82  1.82  1.45  1.45  1.09  1.09  1.09  1.09  1.09  1.09  
17          1.82  1.82  1.82  1.82  1.82  1.82  1.82  1.45  1.45  1.09  1.09  1.09  1.09  1.09  1.09  
18          1.82  1.82  1.82  1.82  1.82  1.82  1.82  1.45  1.45  1.09  1.09  1.09  1.09  1.09  1.09  
19          1.82  1.82  1.82  1.82  1.82  1.82  1.82  1.45  1.45  1.09  1.09  1.09  1.09  1.09  1.09  
20          1.82  1.82  1.82  1.82  1.82  1.82  1.82  1.45  1.45  1.09  1.09  1.09  1.09  1.09  1.09  
21          1.82  1.82  1.82  1.82  1.82  1.82  1.82  1.45  1.45  1.09  1.09  1.09  1.09  1.09  1.09  
22          1.82  1.82  1.82  1.82  1.82  1.82  1.82  1.45  1.45  1.09  1.09  1.09  1.09  1.09  1.09  
23          1.82  1.82  1.82  1.82  1.82  1.82  1.82  1.45  1.45  1.09  1.09  1.09  1.09  1.09  1.09  
24          1.82  1.82  1.82  1.82  1.82  1.82  1.82  1.45  1.45  1.09  1.09  1.09  1.09  1.09  1.09  
25          1.73  1.73  1.73  1.73  1.73  1.73  1.73  1.38  1.38  1.04  1.04  1.04  1.04  1.04  1.04  
26          1.73  1.73  1.73  1.73  1.73  1.73  1.73  1.38  1.38  1.04  1.04  1.04  1.04  1.04  1.04  
27          1.73  1.73  1.73  1.73  1.73  1.73  1.73  1.38  1.38  1.04  1.04  1.04  1.04  1.04  1.04  
28          1.73  1.73  1.73  1.73  1.73  1.73  1.73  1.38  1.38  1.04  1.04  1.04  1.04  1.04  1.04  
29          1.73  1.73  1.73  1.73  1.73  1.73  1.73  1.38  1.38  1.04  1.04  1.04  1.04  1.04  1.04  
30          1.73  1.73  1.73  1.73  1.73  1.73  1.73  1.38  1.38  1.04  1.04  1.04  1.04  1.04  1.04  
31          1.73  1.73  1.73  1.73  1.73  1.73  1.73  1.38  1.38  1.04  1.04  1.04  1.04  1.04  1.04  
32          1.73  1.73  1.73  1.73  1.73  1.73  1.73  1.38  1.38  1.04  1.04  1.04  1.04  1.04  1.04  
33          1.73  1.73  1.73  1.73  1.73  1.73  1.73  1.38  1.38  1.04  1.04  1.04  1.04  1.04  1.04  
34          1.82  1.82  1.82  1.82  1.82  1.82  1.82  1.45  1.45  1.09  1.09  1.09  1.09  1.09  1.09  
35          1.82  1.82  1.82  1.82  1.82  1.82  1.82  1.45  1.45  1.09  1.09  1.09  1.09  1.09  1.09  
36          1.82  1.82  1.82  1.82  1.82  1.82  1.82  1.45  1.45  1.09  1.09  1.09  1.09  1.09  1.09  
37          1.82  1.82  1.82  1.82  1.82  1.82  1.82  1.45  1.45  1.09  1.09  1.09  1.09  1.09  1.09  
38          1.82  1.82  1.82  1.82  1.82  1.82  1.82  1.45  1.45  1.09  1.09  1.09  1.09  1.09  1.09  
39          1.82  1.82  1.82  1.82  1.82  1.82  1.82  1.45  1.45  1.09  1.09  1.09  1.09  1.09  1.09  
40          1.82  1.82  1.82  1.82  1.82  1.82  1.82  1.45  1.45  1.09  1.09  1.09  1.09  1.09  1.09  
41          1.82  1.82  1.82  1.82  1.82  1.82  1.82  1.45  1.45  1.09  1.09  1.09  1.09  1.09  1.09  
42          1.82  1.82  1.82  1.82  1.82  1.82  1.82  1.45  1.45  1.09  1.09  1.09  1.09  1.09  1.09  
43          1.82  1.82  1.82  1.82  1.82  1.82  1.82  1.45  1.45  1.09  1.09  1.09  1.09  1.09  1.09  
44          1.82  1.82  1.82  1.82  1.82  1.82  1.82  1.45  1.45  1.09  1.09  1.09  1.09  1.09  1.09  
45          1.82  1.82  1.82  1.82  1.82  1.82  1.82  1.45  1.45  1.09  1.09  1.09  1.09  1.09  1.09  

[*,*,F3 ]:  K1    K2    K3    K4    K5    K6    K7    K8    K9    K10   K11   K12   K13   K14   K15   :=
1           1.50  1.50  1.50  1.50  1.50  1.50  1.50  1.20  1.20  0.90  0.90  0.90  0.90  0.90  0.90  
2           1.50  1.50  1.50  1.50  1.50  1.50  1.50  1.20  1.20  0.90  0.90  0.90  0.90  0.90  0.90  
3           1.50  1.50  1.50  1.50  1.50  1.50  1.50  1.20  1.20  0.90  0.90  0.90  0.90  0.90  0.90  
4           1.50  1.50  1.50  1.50  1.50  1.50  1.50  1.20  1.20  0.90  0.90  0.90  0.90  0.90  0.90  
5           1.50  1.50  1.50  1.50  1.50  1.50  1.50  1.20  1.20  0.90  0.90  0.90  0.90  0.90  0.90  
6           1.50  1.50  1.50  1.50  1.50  1.50  1.50  1.20  1.20  0.90  0.90  0.90  0.90  0.90  0.90  
7           1.50  1.50  1.50  1.50  1.50  1.50  1.50  1.20  1.20  0.90  0.90  0.90  0.90  0.90  0.90  
8           1.50  1.50  1.50  1.50  1.50  1.50  1.50  1.20  1.20  0.90  0.90  0.90  0.90  0.90  0.90  
9           1.50  1.50  1.50  1.50  1.50  1.50  1.50  1.20  1.20  0.90  0.90  0.90  0.90  0.90  0.90  
10          1.50  1.50  1.50  1.50  1.50  1.50  1.50  1.20  1.20  0.90  0.90  0.90  0.90  0.90  0.90  
11          1.50  1.50  1.50  1.50  1.50  1.50  1.50  1.20  1.20  0.90  0.90  0.90  0.90  0.90  0.90  
12          1.50  1.50  1.50  1.50  1.50  1.50  1.50  1.20  1.20  0.90  0.90  0.90  0.90  0.90  0.90  
13          1.50  1.50  1.50  1.50  1.50  1.50  1.50  1.20  1.20  0.90  0.90  0.90  0.90  0.90  0.90  
14          1.50  1.50  1.50  1.50  1.50  1.50  1.50  1.20  1.20  0.90  0.90  0.90  0.90  0.90  0.90  
15          1.50  1.50  1.50  1.50  1.50  1.50  1.50  1.20  1.20  0.90  0.90  0.90  0.90  0.90  0.90  
16          1.50  1.50  1.50  1.50  1.50  1.50  1.50  1.20  1.20  0.90  0.90  0.90  0.90  0.90  0.90  
17          1.50  1.50  1.50  1.50  1.50  1.50  1.50  1.20  1.20  0.90  0.90  0.90  0.90  0.90  0.90  
18          1.50  1.50  1.50  1.50  1.50  1.50  1.50  1.20  1.20  0.90  0.90  0.90  0.90  0.90  0.90  
19          1.50  1.50  1.50  1.50  1.50  1.50  1.50  1.20  1.20  0.90  0.90  0.90  0.90  0.90  0.90  
20          1.50  1.50  1.50  1.50  1.50  1.50  1.50  1.20  1.20  0.90  0.90  0.90  0.90  0.90  0.90  
21          1.50  1.50  1.50  1.50  1.50  1.50  1.50  1.20  1.20  0.90  0.90  0.90  0.90  0.90  0.90  
22          1.50  1.50  1.50  1.50  1.50  1.50  1.50  1.20  1.20  0.90  0.90  0.90  0.90  0.90  0.90  
23          1.50  1.50  1.50  1.50  1.50  1.50  1.50  1.20  1.20  0.90  0.90  0.90  0.90  0.90  0.90  
24          1.50  1.50  1.50  1.50  1.50  1.50  1.50  1.20  1.20  0.90  0.90  0.90  0.90  0.90  0.90  
25          1.43  1.43  1.43  1.43  1.43  1.43  1.43  1.14  1.14  0.85  0.85  0.85  0.85  0.85  0.85  
26          1.43  1.43  1.43  1.43  1.43  1.43  1.43  1.14  1.14  0.85  0.85  0.85  0.85  0.85  0.85  
27          1.43  1.43  1.43  1.43  1.43  1.43  1.43  1.14  1.14  0.85  0.85  0.85  0.85  0.85  0.85  
28          1.43  1.43  1.43  1.43  1.43  1.43  1.43  1.14  1.14  0.85  0.85  0.85  0.85  0.85  0.85  
29          1.43  1.43  1.43  1.43  1.43  1.43  1.43  1.14  1.14  0.85  0.85  0.85  0.85  0.85  0.85  
30          1.43  1.43  1.43  1.43  1.43  1.43  1.43  1.14  1.14  0.85  0.85  0.85  0.85  0.85  0.85  
31          1.43  1.43  1.43  1.43  1.43  1.43  1.43  1.14  1.14  0.85  0.85  0.85  0.85  0.85  0.85  
32          1.43  1.43  1.43  1.43  1.43  1.43  1.43  1.14  1.14  0.85  0.85  0.85  0.85  0.85  0.85  
33          1.43  1.43  1.43  1.43  1.43  1.43  1.43  1.14  1.14  0.85  0.85  0.85  0.85  0.85  0.85  
34          1.50  1.50  1.50  1.50  1.50  1.50  1.50  1.20  1.20  0.90  0.90  0.90  0.90  0.90  0.90  
35          1.50  1.50  1.50  1.50  1.50  1.50  1.50  1.20  1.20  0.90  0.90  0.90  0.90  0.90  0.90  
36          1.50  1.50  1.50  1.50  1.50  1.50  1.50  1.20  1.20  0.90  0.90  0.90  0.90  0.90  0.90  
37          1.50  1.50  1.50  1.50  1.50  1.50  1.50  1.20  1.20  0.90  0.90  0.90  0.90  0.90  0.90  
38          1.50  1.50  1.50  1.50  1.50  1.50  1.50  1.20  1.20  0.90  0.90  0.90  0.90  0.90  0.90  
39          1.50  1.50  1.50  1.50  1.50  1.50  1.50  1.20  1.20  0.90  0.90  0.90  0.90  0.90  0.90  
40          1.50  1.50  1.50  1.50  1.50  1.50  1.50  1.20  1.20  0.90  0.90  0.90  0.90  0.90  0.90  
41          1.50  1.50  1.50  1.50  1.50  1.50  1.50  1.20  1.20  0.90  0.90  0.90  0.90  0.90  0.90  
42          1.50  1.50  1.50  1.50  1.50  1.50  1.50  1.20  1.20  0.90  0.90  0.90  0.90  0.90  0.90  
43          1.50  1.50  1.50  1.50  1.50  1.50  1.50  1.20  1.20  0.90  0.90  0.90  0.90  0.90  0.90  
44          1.50  1.50  1.50  1.50  1.50  1.50  1.50  1.20  1.20  0.90  0.90  0.90  0.90  0.90  0.90  
45          1.50  1.50  1.50  1.50  1.50  1.50  1.50  1.20  1.20  0.90  0.90  0.90  0.90  0.90  0.90  
; # downloads resource k can do at front f in time t if intermediate time slot

param E:= 

[*,*,F1 ]:  K1    K2    K3    K4    K5    K6    K7    K8    K9    K10   K11   K12   K13   K14   K15   :=
1           0.14  0.35  0.84  0.86  0.19  0.25  0.49  0.39  0.49  0.02  0.16  0.23  0.39  0.00  0.14  
2           0.14  0.35  0.84  0.86  0.19  0.25  0.49  0.39  0.49  0.02  0.16  0.23  0.39  0.00  0.14  
3           0.14  0.35  0.84  0.86  0.19  0.25  0.49  0.39  0.49  0.02  0.16  0.23  0.39  0.00  0.14  
4           0.14  0.35  0.84  0.86  0.19  0.25  0.49  0.39  0.49  0.02  0.16  0.23  0.39  0.00  0.14  
5           0.14  0.35  0.84  0.86  0.19  0.25  0.49  0.39  0.49  0.02  0.16  0.23  0.39  0.00  0.14  
6           0.14  0.35  0.84  0.86  0.19  0.25  0.49  0.39  0.49  0.02  0.16  0.23  0.39  0.00  0.14  
7           0.14  0.35  0.84  0.86  0.19  0.25  0.49  0.39  0.49  0.02  0.16  0.23  0.39  0.00  0.14  
8           0.14  0.35  0.84  0.86  0.19  0.25  0.49  0.39  0.49  0.02  0.16  0.23  0.39  0.00  0.14  
9           0.14  0.35  0.84  0.86  0.19  0.25  0.49  0.39  0.49  0.02  0.16  0.23  0.39  0.00  0.14  
10          0.14  0.35  0.84  0.86  0.19  0.25  0.49  0.39  0.49  0.02  0.16  0.23  0.39  0.00  0.14  
11          0.14  0.35  0.84  0.86  0.19  0.25  0.49  0.39  0.49  0.02  0.16  0.23  0.39  0.00  0.14  
12          0.14  0.35  0.84  0.86  0.19  0.25  0.49  0.39  0.49  0.02  0.16  0.23  0.39  0.00  0.14  
13          0.14  0.35  0.84  0.86  0.19  0.25  0.49  0.39  0.49  0.02  0.16  0.23  0.39  0.00  0.14  
14          0.14  0.35  0.84  0.86  0.19  0.25  0.49  0.39  0.49  0.02  0.16  0.23  0.39  0.00  0.14  
15          0.14  0.35  0.84  0.86  0.19  0.25  0.49  0.39  0.49  0.02  0.16  0.23  0.39  0.00  0.14  
16          0.14  0.35  0.84  0.86  0.19  0.25  0.49  0.39  0.49  0.02  0.16  0.23  0.39  0.00  0.14  
17          0.14  0.35  0.84  0.86  0.19  0.25  0.49  0.39  0.49  0.02  0.16  0.23  0.39  0.00  0.14  
18          0.14  0.35  0.84  0.86  0.19  0.25  0.49  0.39  0.49  0.02  0.16  0.23  0.39  0.00  0.14  
19          0.14  0.35  0.84  0.86  0.19  0.25  0.49  0.39  0.49  0.02  0.16  0.23  0.39  0.00  0.14  
20          0.14  0.35  0.84  0.86  0.19  0.25  0.49  0.39  0.49  0.02  0.16  0.23  0.39  0.00  0.14  
21          0.14  0.35  0.84  0.86  0.19  0.25  0.49  0.39  0.49  0.02  0.16  0.23  0.39  0.00  0.14  
22          0.14  0.35  0.84  0.86  0.19  0.25  0.49  0.39  0.49  0.02  0.16  0.23  0.39  0.00  0.14  
23          0.14  0.35  0.84  0.86  0.19  0.25  0.49  0.39  0.49  0.02  0.16  0.23  0.39  0.00  0.14  
24          0.14  0.35  0.84  0.86  0.19  0.25  0.49  0.39  0.49  0.02  0.16  0.23  0.39  0.00  0.14  
25          0.13  0.33  0.80  0.82  0.18  0.23  0.47  0.37  0.46  0.02  0.15  0.22  0.37  0.00  0.13  
26          0.13  0.33  0.80  0.82  0.18  0.23  0.47  0.37  0.46  0.02  0.15  0.22  0.37  0.00  0.13  
27          0.13  0.33  0.80  0.82  0.18  0.23  0.47  0.37  0.46  0.02  0.15  0.22  0.37  0.00  0.13  
28          0.13  0.33  0.80  0.82  0.18  0.23  0.47  0.37  0.46  0.02  0.15  0.22  0.37  0.00  0.13  
29          0.13  0.33  0.80  0.82  0.18  0.23  0.47  0.37  0.46  0.02  0.15  0.22  0.37  0.00  0.13  
30          0.13  0.33  0.80  0.82  0.18  0.23  0.47  0.37  0.46  0.02  0.15  0.22  0.37  0.00  0.13  
31          0.13  0.33  0.80  0.82  0.18  0.23  0.47  0.37  0.46  0.02  0.15  0.22  0.37  0.00  0.13  
32          0.13  0.33  0.80  0.82  0.18  0.23  0.47  0.37  0.46  0.02  0.15  0.22  0.37  0.00  0.13  
33          0.13  0.33  0.80  0.82  0.18  0.23  0.47  0.37  0.46  0.02  0.15  0.22  0.37  0.00  0.13  
34          0.14  0.35  0.84  0.86  0.19  0.25  0.49  0.39  0.49  0.02  0.16  0.23  0.39  0.00  0.14  
35          0.14  0.35  0.84  0.86  0.19  0.25  0.49  0.39  0.49  0.02  0.16  0.23  0.39  0.00  0.14  
36          0.14  0.35  0.84  0.86  0.19  0.25  0.49  0.39  0.49  0.02  0.16  0.23  0.39  0.00  0.14  
37          0.14  0.35  0.84  0.86  0.19  0.25  0.49  0.39  0.49  0.02  0.16  0.23  0.39  0.00  0.14  
38          0.14  0.35  0.84  0.86  0.19  0.25  0.49  0.39  0.49  0.02  0.16  0.23  0.39  0.00  0.14  
39          0.14  0.35  0.84  0.86  0.19  0.25  0.49  0.39  0.49  0.02  0.16  0.23  0.39  0.00  0.14  
40          0.14  0.35  0.84  0.86  0.19  0.25  0.49  0.39  0.49  0.02  0.16  0.23  0.39  0.00  0.14  
41          0.14  0.35  0.84  0.86  0.19  0.25  0.49  0.39  0.49  0.02  0.16  0.23  0.39  0.00  0.14  
42          0.14  0.35  0.84  0.86  0.19  0.25  0.49  0.39  0.49  0.02  0.16  0.23  0.39  0.00  0.14  
43          0.14  0.35  0.84  0.86  0.19  0.25  0.49  0.39  0.49  0.02  0.16  0.23  0.39  0.00  0.14  
44          0.14  0.35  0.84  0.86  0.19  0.25  0.49  0.39  0.49  0.02  0.16  0.23  0.39  0.00  0.14  
45          0.14  0.35  0.84  0.86  0.19  0.25  0.49  0.39  0.49  0.02  0.16  0.23  0.39  0.00  0.14  

[*,*,F2 ]:  K1    K2    K3    K4    K5    K6    K7    K8    K9    K10   K11   K12   K13   K14   K15   :=
1           0.20  0.51  0.87  0.89  0.29  0.20  0.49  0.39  0.45  0.11  0.11  0.17  0.38  0.00  0.16  
2           0.20  0.51  0.87  0.89  0.29  0.20  0.49  0.39  0.45  0.11  0.11  0.17  0.38  0.00  0.16  
3           0.20  0.51  0.87  0.89  0.29  0.20  0.49  0.39  0.45  0.11  0.11  0.17  0.38  0.00  0.16  
4           0.20  0.51  0.87  0.89  0.29  0.20  0.49  0.39  0.45  0.11  0.11  0.17  0.38  0.00  0.16  
5           0.20  0.51  0.87  0.89  0.29  0.20  0.49  0.39  0.45  0.11  0.11  0.17  0.38  0.00  0.16  
6           0.20  0.51  0.87  0.89  0.29  0.20  0.49  0.39  0.45  0.11  0.11  0.17  0.38  0.00  0.16  
7           0.20  0.51  0.87  0.89  0.29  0.20  0.49  0.39  0.45  0.11  0.11  0.17  0.38  0.00  0.16  
8           0.20  0.51  0.87  0.89  0.29  0.20  0.49  0.39  0.45  0.11  0.11  0.17  0.38  0.00  0.16  
9           0.20  0.51  0.87  0.89  0.29  0.20  0.49  0.39  0.45  0.11  0.11  0.17  0.38  0.00  0.16  
10          0.20  0.51  0.87  0.89  0.29  0.20  0.49  0.39  0.45  0.11  0.11  0.17  0.38  0.00  0.16  
11          0.20  0.51  0.87  0.89  0.29  0.20  0.49  0.39  0.45  0.11  0.11  0.17  0.38  0.00  0.16  
12          0.20  0.51  0.87  0.89  0.29  0.20  0.49  0.39  0.45  0.11  0.11  0.17  0.38  0.00  0.16  
13          0.20  0.51  0.87  0.89  0.29  0.20  0.49  0.39  0.45  0.11  0.11  0.17  0.38  0.00  0.16  
14          0.20  0.51  0.87  0.89  0.29  0.20  0.49  0.39  0.45  0.11  0.11  0.17  0.38  0.00  0.16  
15          0.20  0.51  0.87  0.89  0.29  0.20  0.49  0.39  0.45  0.11  0.11  0.17  0.38  0.00  0.16  
16          0.20  0.51  0.87  0.89  0.29  0.20  0.49  0.39  0.45  0.11  0.11  0.17  0.38  0.00  0.16  
17          0.20  0.51  0.87  0.89  0.29  0.20  0.49  0.39  0.45  0.11  0.11  0.17  0.38  0.00  0.16  
18          0.20  0.51  0.87  0.89  0.29  0.20  0.49  0.39  0.45  0.11  0.11  0.17  0.38  0.00  0.16  
19          0.20  0.51  0.87  0.89  0.29  0.20  0.49  0.39  0.45  0.11  0.11  0.17  0.38  0.00  0.16  
20          0.20  0.51  0.87  0.89  0.29  0.20  0.49  0.39  0.45  0.11  0.11  0.17  0.38  0.00  0.16  
21          0.20  0.51  0.87  0.89  0.29  0.20  0.49  0.39  0.45  0.11  0.11  0.17  0.38  0.00  0.16  
22          0.20  0.51  0.87  0.89  0.29  0.20  0.49  0.39  0.45  0.11  0.11  0.17  0.38  0.00  0.16  
23          0.20  0.51  0.87  0.89  0.29  0.20  0.49  0.39  0.45  0.11  0.11  0.17  0.38  0.00  0.16  
24          0.20  0.51  0.87  0.89  0.29  0.20  0.49  0.39  0.45  0.11  0.11  0.17  0.38  0.00  0.16  
25          0.19  0.48  0.83  0.85  0.28  0.19  0.47  0.37  0.43  0.10  0.10  0.17  0.36  0.00  0.16  
26          0.19  0.48  0.83  0.85  0.28  0.19  0.47  0.37  0.43  0.10  0.10  0.17  0.36  0.00  0.16  
27          0.19  0.48  0.83  0.85  0.28  0.19  0.47  0.37  0.43  0.10  0.10  0.17  0.36  0.00  0.16  
28          0.19  0.48  0.83  0.85  0.28  0.19  0.47  0.37  0.43  0.10  0.10  0.17  0.36  0.00  0.16  
29          0.19  0.48  0.83  0.85  0.28  0.19  0.47  0.37  0.43  0.10  0.10  0.17  0.36  0.00  0.16  
30          0.19  0.48  0.83  0.85  0.28  0.19  0.47  0.37  0.43  0.10  0.10  0.17  0.36  0.00  0.16  
31          0.19  0.48  0.83  0.85  0.28  0.19  0.47  0.37  0.43  0.10  0.10  0.17  0.36  0.00  0.16  
32          0.19  0.48  0.83  0.85  0.28  0.19  0.47  0.37  0.43  0.10  0.10  0.17  0.36  0.00  0.16  
33          0.19  0.48  0.83  0.85  0.28  0.19  0.47  0.37  0.43  0.10  0.10  0.17  0.36  0.00  0.16  
34          0.20  0.51  0.87  0.89  0.29  0.20  0.49  0.39  0.45  0.11  0.11  0.17  0.38  0.00  0.16  
35          0.20  0.51  0.87  0.89  0.29  0.20  0.49  0.39  0.45  0.11  0.11  0.17  0.38  0.00  0.16  
36          0.20  0.51  0.87  0.89  0.29  0.20  0.49  0.39  0.45  0.11  0.11  0.17  0.38  0.00  0.16  
37          0.20  0.51  0.87  0.89  0.29  0.20  0.49  0.39  0.45  0.11  0.11  0.17  0.38  0.00  0.16  
38          0.20  0.51  0.87  0.89  0.29  0.20  0.49  0.39  0.45  0.11  0.11  0.17  0.38  0.00  0.16  
39          0.20  0.51  0.87  0.89  0.29  0.20  0.49  0.39  0.45  0.11  0.11  0.17  0.38  0.00  0.16  
40          0.20  0.51  0.87  0.89  0.29  0.20  0.49  0.39  0.45  0.11  0.11  0.17  0.38  0.00  0.16  
41          0.20  0.51  0.87  0.89  0.29  0.20  0.49  0.39  0.45  0.11  0.11  0.17  0.38  0.00  0.16  
42          0.20  0.51  0.87  0.89  0.29  0.20  0.49  0.39  0.45  0.11  0.11  0.17  0.38  0.00  0.16  
43          0.20  0.51  0.87  0.89  0.29  0.20  0.49  0.39  0.45  0.11  0.11  0.17  0.38  0.00  0.16  
44          0.20  0.51  0.87  0.89  0.29  0.20  0.49  0.39  0.45  0.11  0.11  0.17  0.38  0.00  0.16  
45          0.20  0.51  0.87  0.89  0.29  0.20  0.49  0.39  0.45  0.11  0.11  0.17  0.38  0.00  0.16  

[*,*,F3 ]:  K1    K2    K3    K4    K5    K6    K7    K8    K9    K10   K11   K12   K13   K14   K15   :=
1           0.05  0.27  0.63  0.71  0.27  0.15  0.29  0.23  0.44  0.03  0.14  0.21  0.34  0.01  0.13  
2           0.05  0.27  0.63  0.71  0.27  0.15  0.29  0.23  0.44  0.03  0.14  0.21  0.34  0.01  0.13  
3           0.05  0.27  0.63  0.71  0.27  0.15  0.29  0.23  0.44  0.03  0.14  0.21  0.34  0.01  0.13  
4           0.05  0.27  0.63  0.71  0.27  0.15  0.29  0.23  0.44  0.03  0.14  0.21  0.34  0.01  0.13  
5           0.05  0.27  0.63  0.71  0.27  0.15  0.29  0.23  0.44  0.03  0.14  0.21  0.34  0.01  0.13  
6           0.05  0.27  0.63  0.71  0.27  0.15  0.29  0.23  0.44  0.03  0.14  0.21  0.34  0.01  0.13  
7           0.05  0.27  0.63  0.71  0.27  0.15  0.29  0.23  0.44  0.03  0.14  0.21  0.34  0.01  0.13  
8           0.05  0.27  0.63  0.71  0.27  0.15  0.29  0.23  0.44  0.03  0.14  0.21  0.34  0.01  0.13  
9           0.05  0.27  0.63  0.71  0.27  0.15  0.29  0.23  0.44  0.03  0.14  0.21  0.34  0.01  0.13  
10          0.05  0.27  0.63  0.71  0.27  0.15  0.29  0.23  0.44  0.03  0.14  0.21  0.34  0.01  0.13  
11          0.05  0.27  0.63  0.71  0.27  0.15  0.29  0.23  0.44  0.03  0.14  0.21  0.34  0.01  0.13  
12          0.05  0.27  0.63  0.71  0.27  0.15  0.29  0.23  0.44  0.03  0.14  0.21  0.34  0.01  0.13  
13          0.05  0.27  0.63  0.71  0.27  0.15  0.29  0.23  0.44  0.03  0.14  0.21  0.34  0.01  0.13  
14          0.05  0.27  0.63  0.71  0.27  0.15  0.29  0.23  0.44  0.03  0.14  0.21  0.34  0.01  0.13  
15          0.05  0.27  0.63  0.71  0.27  0.15  0.29  0.23  0.44  0.03  0.14  0.21  0.34  0.01  0.13  
16          0.05  0.27  0.63  0.71  0.27  0.15  0.29  0.23  0.44  0.03  0.14  0.21  0.34  0.01  0.13  
17          0.05  0.27  0.63  0.71  0.27  0.15  0.29  0.23  0.44  0.03  0.14  0.21  0.34  0.01  0.13  
18          0.05  0.27  0.63  0.71  0.27  0.15  0.29  0.23  0.44  0.03  0.14  0.21  0.34  0.01  0.13  
19          0.05  0.27  0.63  0.71  0.27  0.15  0.29  0.23  0.44  0.03  0.14  0.21  0.34  0.01  0.13  
20          0.05  0.27  0.63  0.71  0.27  0.15  0.29  0.23  0.44  0.03  0.14  0.21  0.34  0.01  0.13  
21          0.05  0.27  0.63  0.71  0.27  0.15  0.29  0.23  0.44  0.03  0.14  0.21  0.34  0.01  0.13  
22          0.05  0.27  0.63  0.71  0.27  0.15  0.29  0.23  0.44  0.03  0.14  0.21  0.34  0.01  0.13  
23          0.05  0.27  0.63  0.71  0.27  0.15  0.29  0.23  0.44  0.03  0.14  0.21  0.34  0.01  0.13  
24          0.05  0.27  0.63  0.71  0.27  0.15  0.29  0.23  0.44  0.03  0.14  0.21  0.34  0.01  0.13  
25          0.04  0.26  0.60  0.67  0.26  0.14  0.27  0.22  0.42  0.03  0.14  0.20  0.32  0.01  0.12  
26          0.04  0.26  0.60  0.67  0.26  0.14  0.27  0.22  0.42  0.03  0.14  0.20  0.32  0.01  0.12  
27          0.04  0.26  0.60  0.67  0.26  0.14  0.27  0.22  0.42  0.03  0.14  0.20  0.32  0.01  0.12  
28          0.04  0.26  0.60  0.67  0.26  0.14  0.27  0.22  0.42  0.03  0.14  0.20  0.32  0.01  0.12  
29          0.04  0.26  0.60  0.67  0.26  0.14  0.27  0.22  0.42  0.03  0.14  0.20  0.32  0.01  0.12  
30          0.04  0.26  0.60  0.67  0.26  0.14  0.27  0.22  0.42  0.03  0.14  0.20  0.32  0.01  0.12  
31          0.04  0.26  0.60  0.67  0.26  0.14  0.27  0.22  0.42  0.03  0.14  0.20  0.32  0.01  0.12  
32          0.04  0.26  0.60  0.67  0.26  0.14  0.27  0.22  0.42  0.03  0.14  0.20  0.32  0.01  0.12  
33          0.04  0.26  0.60  0.67  0.26  0.14  0.27  0.22  0.42  0.03  0.14  0.20  0.32  0.01  0.12  
34          0.05  0.27  0.63  0.71  0.27  0.15  0.29  0.23  0.44  0.03  0.14  0.21  0.34  0.01  0.13  
35          0.05  0.27  0.63  0.71  0.27  0.15  0.29  0.23  0.44  0.03  0.14  0.21  0.34  0.01  0.13  
36          0.05  0.27  0.63  0.71  0.27  0.15  0.29  0.23  0.44  0.03  0.14  0.21  0.34  0.01  0.13  
37          0.05  0.27  0.63  0.71  0.27  0.15  0.29  0.23  0.44  0.03  0.14  0.21  0.34  0.01  0.13  
38          0.05  0.27  0.63  0.71  0.27  0.15  0.29  0.23  0.44  0.03  0.14  0.21  0.34  0.01  0.13  
39          0.05  0.27  0.63  0.71  0.27  0.15  0.29  0.23  0.44  0.03  0.14  0.21  0.34  0.01  0.13  
40          0.05  0.27  0.63  0.71  0.27  0.15  0.29  0.23  0.44  0.03  0.14  0.21  0.34  0.01  0.13  
41          0.05  0.27  0.63  0.71  0.27  0.15  0.29  0.23  0.44  0.03  0.14  0.21  0.34  0.01  0.13  
42          0.05  0.27  0.63  0.71  0.27  0.15  0.29  0.23  0.44  0.03  0.14  0.21  0.34  0.01  0.13  
43          0.05  0.27  0.63  0.71  0.27  0.15  0.29  0.23  0.44  0.03  0.14  0.21  0.34  0.01  0.13  
44          0.05  0.27  0.63  0.71  0.27  0.15  0.29  0.23  0.44  0.03  0.14  0.21  0.34  0.01  0.13  
45          0.05  0.27  0.63  0.71  0.27  0.15  0.29  0.23  0.44  0.03  0.14  0.21  0.34  0.01  0.13  
; # downloads resource k can do at front f in time t if starting or ending flight

param W: 
	F1        F2        F3        :=
1	541.25    541.25    541.25    
2	2165.02   2165.02   2165.02   
3	2165.02   2165.02   2165.02   
4	2165.02   2165.02   2165.02   
5	2165.02   2165.02   2165.02   
6	2165.02   2165.02   2165.02   
7	2165.02   2165.02   2165.02   
8	2165.02   2165.02   2165.02   
9	2165.02   2165.02   2165.02   
10	2165.02   2165.02   2165.02   
11	2165.02   2165.02   2165.02   
12	2165.02   2165.02   2165.02   
13	2165.02   2165.02   2165.02   
14	2165.02   2165.02   2165.02   
15	2165.02   2165.02   2165.02   
16	2165.02   2165.02   2165.02   
17	2165.02   2165.02   2165.02   
18	2165.02   2165.02   2165.02   
19	962.23    962.23    962.23    
20	962.23    962.23    962.23    
21	962.23    962.23    962.23    
22	962.23    962.23    962.23    
23	962.23    962.23    962.23    
24	962.23    962.23    962.23    
25	962.23    962.23    962.23    
26	962.23    962.23    962.23    
27	962.23    962.23    962.23    
28	962.23    962.23    962.23    
29	962.23    962.23    962.23    
30	962.23    962.23    962.23    
31	962.23    962.23    962.23    
32	962.23    962.23    962.23    
33	962.23    962.23    962.23    
34	962.23    962.23    962.23    
35	962.23    962.23    962.23    
36	962.23    962.23    962.23    
37	962.23    962.23    962.23    
38	962.23    962.23    962.23    
39	962.23    962.23    962.23    
40	962.23    962.23    962.23    
41	962.23    962.23    962.23    
42	962.23    962.23    962.23    
43	962.23    962.23    962.23    
44	962.23    962.23    962.23    
45	240.56    240.56    240.56    
; # water needed at front f in time slot t

param M := 100000000; 

param a1:= 10000000;

param a2:= 100;

param a3:= 0.0001;
